p tdp 25 40
1 2
1 16
2 5
2 21
3 20
3 23
4 17
4 20
4 23
4 25
5 6
5 8
6 7
6 13
6 21
7 8
7 15
7 25
8 9
9 15
10 15
10 20
10 25
11 12
11 13
11 19
11 21
12 16
12 18
13 17
13 25
14 18
14 22
16 21
17 19
17 24
18 19
19 22
22 24
23 24
